p cnf 1053
-7 -96
-8 -35
-9 -38
-10 -41
-11 -113
-12 -119
-13 -125
-14 -146
-15 -165
-16 -183
-17 -193
-18 -212
-19 -231
-20 -249
-21 -259
-22 -278
-23 -297
-24 -315
-25 -325
-26 -347
-27 1
-27 -11
-1 11 27
-28 2
-28 -12
-2 12 28
-29 3
-29 -13
-3 13 29
-30 -27
-30 28
27 -28 30
-31 -27
-31 -30
27 30 31
-32 29
-32 31
-29 -31 32
-33 -7
-33 27
7 -27 33
-34 7
-34 8
-7 -8 34
-35 -33
-35 -34
33 34 35
-36 -7
-36 30
7 -30 36
-37 7
-37 9
-7 -9 37
-38 -36
-38 -37
36 37 38
-39 -7
-39 32
7 -32 39
-40 7
-40 10
-7 -10 40
-41 -39
-41 -40
39 40 41
-42 1
-42 -35
-1 35 42
-43 2
-43 -38
-2 38 43
-44 3
-44 -41
-3 41 44
-45 14
-45 -15
-14 15 45
-46 -16
-46 -17
16 17 46
-47 45
-47 46
-45 -46 47
-48 -14
-48 -15
14 15 48
-49 -16
-49 17
16 -17 49
-50 48
-50 49
-48 -49 50
-51 -47
-51 -50
47 50 51
-52 42
-52 -51
-42 51 52
-53 18
-53 -19
-18 19 53
-54 -20
-54 -21
20 21 54
-55 53
-55 54
-53 -54 55
-56 -18
-56 -19
18 19 56
-57 -20
-57 21
20 -21 57
-58 56
-58 57
-56 -57 58
-59 -55
-59 -58
55 58 59
-60 43
-60 -59
-43 59 60
-61 22
-61 -23
-22 23 61
-62 -24
-62 -25
24 25 62
-63 61
-63 62
-61 -62 63
-64 -22
-64 -23
22 23 64
-65 -24
-65 25
24 -25 65
-66 64
-66 65
-64 -65 66
-67 -63
-67 -66
63 66 67
-68 44
-68 -67
-44 67 68
-69 -52
-69 -60
52 60 69
-70 -68
-70 69
68 -69 70
-71 -14
-71 15
14 -15 71
-72 16
-72 -17
-16 17 72
-73 71
-73 72
-71 -72 73
-74 16
-74 17
-16 -17 74
-75 45
-75 74
-45 -74 75
-76 -73
-76 -75
73 75 76
-77 42
-77 -76
-42 76 77
-78 -18
-78 19
18 -19 78
-79 20
-79 -21
-20 21 79
-80 78
-80 79
-78 -79 80
-81 20
-81 21
-20 -21 81
-82 53
-82 81
-53 -81 82
-83 -80
-83 -82
80 82 83
-84 43
-84 -83
-43 83 84
-85 -22
-85 23
22 -23 85
-86 24
-86 -25
-24 25 86
-87 85
-87 86
-85 -86 87
-88 24
-88 25
-24 -25 88
-89 61
-89 88
-61 -88 89
-90 -87
-90 -89
87 89 90
-91 44
-91 -90
-44 90 91
-92 -77
-92 -84
77 84 92
-93 -91
-93 92
91 -92 93
-94 7
-94 93
-7 -93 94
-95 70
-95 94
-70 -94 95
-96 70
-96 -95
-70 95 96
-97 -11
-97 12
11 -12 97
-98 -11
-98 -97
11 97 98
-99 13
-99 98
-13 -98 99
-100 48
-100 74
-48 -74 100
-101 42
-101 100
-42 -100 101
-102 56
-102 81
-56 -81 102
-103 43
-103 102
-43 -102 103
-104 64
-104 88
-64 -88 104
-105 44
-105 104
-44 -104 105
-106 -101
-106 -103
101 103 106
-107 -105
-107 106
105 -106 107
-108 45
-108 72
-45 -72 108
-109 42
-109 108
-42 -108 109
-110 11
-110 -107
-11 107 110
-111 11
-111 -110
-11 110 111
-112 -109
-112 111
109 -111 112
-113 -109
-113 -112
109 112 113
-114 53
-114 79
-53 -79 114
-115 43
-115 114
-43 -114 115
-116 97
-116 -107
-97 107 116
-117 12
-117 -116
-12 116 117
-118 -115
-118 117
115 -117 118
-119 -115
-119 -118
115 118 119
-120 61
-120 86
-61 -86 120
-121 44
-121 120
-44 -120 121
-122 99
-122 -107
-99 107 122
-123 13
-123 -122
-13 122 123
-124 -121
-124 123
121 -123 124
-125 -121
-125 -124
121 124 125
-126 -11
-126 -12
11 12 126
-127 -13
-127 126
13 -126 127
-128 -15
-128 -48
15 48 128
-129 16
-129 48
-16 -48 129
-130 -16
-130 -128
16 128 130
-131 -129
-131 -130
129 130 131
-132 -4
-132 14
4 -14 132
-133 14
-133 -132
-14 132 133
-134 15
-134 -133
-15 133 134
-135 4
-135 -14
-4 14 135
-136 -15
-136 135
15 -135 136
-137 -71
-137 -136
71 136 137
-138 16
-138 134
-16 -134 138
-139 -16
-139 -137
16 137 139
-140 -138
-140 -139
138 139 140
-141 17
-141 -131
-17 131 141
-142 -17
-142 -140
17 140 142
-143 -141
-143 -142
141 142 143
-144 42
-144 -143
-42 143 144
-145 14
-145 -42
-14 42 145
-146 -144
-146 -145
144 145 146
-147 14
-147 127
-14 -127 147
-148 -15
-148 147
15 -147 148
-149 -71
-149 -148
71 148 149
-150 16
-150 45
-16 -45 150
-151 -16
-151 -149
16 149 151
-152 -150
-152 -151
150 151 152
-153 15
-153 -134
-15 134 153
-154 -14
-154 -26
14 26 154
-155 15
-155 154
-15 -154 155
-156 -45
-156 -155
45 155 156
-157 16
-157 -153
-16 153 157
-158 -16
-158 -156
16 156 158
-159 -157
-159 -158
157 158 159
-160 17
-160 -152
-17 152 160
-161 -17
-161 -159
17 159 161
-162 -160
-162 -161
160 161 162
-163 42
-163 -162
-42 162 163
-164 15
-164 -42
-15 42 164
-165 -163
-165 -164
163 164 165
-166 14
-166 -127
-14 127 166
-167 14
-167 15
-14 -15 167
-168 -15
-168 166
15 -166 168
-169 -167
-169 -168
167 168 169
-170 -15
-170 16
15 -16 170
-171 -16
-171 -169
16 169 171
-172 -170
-172 -171
170 171 172
-173 -14
-173 26
14 -26 173
-174 -14
-174 -173
14 173 174
-175 15
-175 -174
-15 174 175
-176 -16
-176 175
16 -175 176
-177 -157
-177 -176
157 176 177
-178 17
-178 -172
-17 172 178
-179 -17
-179 -177
17 177 179
-180 -178
-180 -179
178 179 180
-181 42
-181 -180
-42 180 181
-182 16
-182 -42
-16 42 182
-183 -181
-183 -182
181 182 183
-184 16
-184 -170
-16 170 184
-185 4
-185 14
-4 -14 185
-186 15
-186 185
-15 -185 186
-187 16
-187 186
-16 -186 187
-188 17
-188 -184
-17 184 188
-189 -17
-189 187
17 -187 189
-190 -188
-190 -189
188 189 190
-191 42
-191 -190
-42 190 191
-192 17
-192 -42
-17 42 192
-193 -191
-193 -192
191 192 193
-194 -19
-194 -56
19 56 194
-195 20
-195 56
-20 -56 195
-196 -20
-196 -194
20 194 196
-197 -195
-197 -196
195 196 197
-198 -5
-198 18
5 -18 198
-199 18
-199 -198
-18 198 199
-200 19
-200 -199
-19 199 200
-201 5
-201 -18
-5 18 201
-202 -19
-202 201
19 -201 202
-203 -78
-203 -202
78 202 203
-204 20
-204 200
-20 -200 204
-205 -20
-205 -203
20 203 205
-206 -204
-206 -205
204 205 206
-207 21
-207 -197
-21 197 207
-208 -21
-208 -206
21 206 208
-209 -207
-209 -208
207 208 209
-210 43
-210 -209
-43 209 210
-211 18
-211 -43
-18 43 211
-212 -210
-212 -211
210 211 212
-213 18
-213 127
-18 -127 213
-214 -19
-214 213
19 -213 214
-215 -78
-215 -214
78 214 215
-216 20
-216 53
-20 -53 216
-217 -20
-217 -215
20 215 217
-218 -216
-218 -217
216 217 218
-219 19
-219 -200
-19 200 219
-220 -18
-220 -26
18 26 220
-221 19
-221 220
-19 -220 221
-222 -53
-222 -221
53 221 222
-223 20
-223 -219
-20 219 223
-224 -20
-224 -222
20 222 224
-225 -223
-225 -224
223 224 225
-226 21
-226 -218
-21 218 226
-227 -21
-227 -225
21 225 227
-228 -226
-228 -227
226 227 228
-229 43
-229 -228
-43 228 229
-230 19
-230 -43
-19 43 230
-231 -229
-231 -230
229 230 231
-232 18
-232 -127
-18 127 232
-233 18
-233 19
-18 -19 233
-234 -19
-234 232
19 -232 234
-235 -233
-235 -234
233 234 235
-236 -19
-236 20
19 -20 236
-237 -20
-237 -235
20 235 237
-238 -236
-238 -237
236 237 238
-239 -18
-239 26
18 -26 239
-240 -18
-240 -239
18 239 240
-241 19
-241 -240
-19 240 241
-242 -20
-242 241
20 -241 242
-243 -223
-243 -242
223 242 243
-244 21
-244 -238
-21 238 244
-245 -21
-245 -243
21 243 245
-246 -244
-246 -245
244 245 246
-247 43
-247 -246
-43 246 247
-248 20
-248 -43
-20 43 248
-249 -247
-249 -248
247 248 249
-250 20
-250 -236
-20 236 250
-251 5
-251 18
-5 -18 251
-252 19
-252 251
-19 -251 252
-253 20
-253 252
-20 -252 253
-254 21
-254 -250
-21 250 254
-255 -21
-255 253
21 -253 255
-256 -254
-256 -255
254 255 256
-257 43
-257 -256
-43 256 257
-258 21
-258 -43
-21 43 258
-259 -257
-259 -258
257 258 259
-260 -23
-260 -64
23 64 260
-261 24
-261 64
-24 -64 261
-262 -24
-262 -260
24 260 262
-263 -261
-263 -262
261 262 263
-264 -6
-264 22
6 -22 264
-265 22
-265 -264
-22 264 265
-266 23
-266 -265
-23 265 266
-267 6
-267 -22
-6 22 267
-268 -23
-268 267
23 -267 268
-269 -85
-269 -268
85 268 269
-270 24
-270 266
-24 -266 270
-271 -24
-271 -269
24 269 271
-272 -270
-272 -271
270 271 272
-273 25
-273 -263
-25 263 273
-274 -25
-274 -272
25 272 274
-275 -273
-275 -274
273 274 275
-276 44
-276 -275
-44 275 276
-277 22
-277 -44
-22 44 277
-278 -276
-278 -277
276 277 278
-279 22
-279 127
-22 -127 279
-280 -23
-280 279
23 -279 280
-281 -85
-281 -280
85 280 281
-282 24
-282 61
-24 -61 282
-283 -24
-283 -281
24 281 283
-284 -282
-284 -283
282 283 284
-285 23
-285 -266
-23 266 285
-286 -22
-286 -26
22 26 286
-287 23
-287 286
-23 -286 287
-288 -61
-288 -287
61 287 288
-289 24
-289 -285
-24 285 289
-290 -24
-290 -288
24 288 290
-291 -289
-291 -290
289 290 291
-292 25
-292 -284
-25 284 292
-293 -25
-293 -291
25 291 293
-294 -292
-294 -293
292 293 294
-295 44
-295 -294
-44 294 295
-296 23
-296 -44
-23 44 296
-297 -295
-297 -296
295 296 297
-298 22
-298 -127
-22 127 298
-299 22
-299 23
-22 -23 299
-300 -23
-300 298
23 -298 300
-301 -299
-301 -300
299 300 301
-302 -23
-302 24
23 -24 302
-303 -24
-303 -301
24 301 303
-304 -302
-304 -303
302 303 304
-305 -22
-305 26
22 -26 305
-306 -22
-306 -305
22 305 306
-307 23
-307 -306
-23 306 307
-308 -24
-308 307
24 -307 308
-309 -289
-309 -308
289 308 309
-310 25
-310 -304
-25 304 310
-311 -25
-311 -309
25 309 311
-312 -310
-312 -311
310 311 312
-313 44
-313 -312
-44 312 313
-314 24
-314 -44
-24 44 314
-315 -313
-315 -314
313 314 315
-316 24
-316 -302
-24 302 316
-317 6
-317 22
-6 -22 317
-318 23
-318 317
-23 -317 318
-319 24
-319 318
-24 -318 319
-320 25
-320 -316
-25 316 320
-321 -25
-321 319
25 -319 321
-322 -320
-322 -321
320 321 322
-323 44
-323 -322
-44 322 323
-324 25
-324 -44
-25 44 324
-325 -323
-325 -324
323 324 325
-326 46
-326 167
-46 -167 326
-327 42
-327 326
-42 -326 327
-328 54
-328 233
-54 -233 328
-329 43
-329 328
-43 -328 329
-330 62
-330 299
-62 -299 330
-331 44
-331 330
-44 -330 331
-332 -327
-332 -329
327 329 332
-333 -331
-333 332
331 -332 333
-334 49
-334 71
-49 -71 334
-335 42
-335 334
-42 -334 335
-336 57
-336 78
-57 -78 336
-337 43
-337 336
-43 -336 337
-338 65
-338 85
-65 -85 338
-339 44
-339 338
-44 -338 339
-340 -335
-340 -337
335 337 340
-341 -339
-341 340
339 -340 341
-342 -26
-342 -341
26 341 342
-343 26
-343 341
-26 -341 343
-344 -342
-344 -343
342 343 344
-345 -26
-345 -333
26 333 345
-346 333
-346 -344
-333 344 346
-347 -345
-347 -346
345 346 347
-348 72
-348 167
-72 -167 348
-349 -11
-349 348
11 -348 349
-350 79
-350 233
-79 -233 350
-351 -12
-351 350
12 -350 351
-352 86
-352 299
-86 -299 352
-353 -13
-353 352
13 -352 353
-354 349
-354 -351
-349 351 354
-355 -349
-355 351
349 -351 355
-356 -354
-356 -355
354 355 356
-357 349
-357 351
-349 -351 357
-358 -353
-358 -356
353 356 358
-359 353
-359 356
-353 -356 359
-360 -358
-360 -359
358 359 360
-361 353
-361 -356
-353 356 361
-362 357
-362 -361
-357 361 362
-363 -357
-363 361
357 -361 363
-364 -362
-364 -363
362 363 364
-365 357
-365 361
-357 -361 365
-366 -26
-366 -127
26 127 366
-367 26
-367 -333
-26 333 367
-368 364
-368 -367
-364 367 368
-369 -342
-369 -366
342 366 369
-370 368
-370 369
-368 -369 370
-370
